(set-logic HORN)
(declare-fun inv ((_ BitVec 64) (_ BitVec 64) (_ BitVec 64) (_ BitVec 64) (_ BitVec 64) (_ BitVec 64) ) Bool)
(assert (forall ((MAXPATHLEN (_ BitVec 64)) (pathbuf_off (_ BitVec 64)) (bound_off (_ BitVec 64)) (glob2_p_off (_ BitVec 64)) (glob2_pathbuf_off (_ BitVec 64)) (glob2_pathlim_off (_ BitVec 64))) 
       (=> ( and ( bvsgt MAXPATHLEN (_ bv0 64) ) ( bvslt MAXPATHLEN (_ bv2147483647 64) ) ( = pathbuf_off (_ bv0 64) ) ( = bound_off ( bvsub ( bvadd pathbuf_off MAXPATHLEN (_ bv1 64) ) (_ bv1 64) ) ) ( = glob2_pathbuf_off pathbuf_off ) ( = glob2_pathlim_off bound_off ) ( = glob2_p_off glob2_pathbuf_off ) ) (inv MAXPATHLEN pathbuf_off bound_off glob2_p_off glob2_pathbuf_off glob2_pathlim_off))))
(assert (forall ((MAXPATHLEN (_ BitVec 64)) (pathbuf_off (_ BitVec 64)) (bound_off (_ BitVec 64)) (glob2_p_off (_ BitVec 64)) (glob2_pathbuf_off (_ BitVec 64)) (glob2_pathlim_off (_ BitVec 64)) (MAXPATHLEN! (_ BitVec 64)) (pathbuf_off! (_ BitVec 64)) (bound_off! (_ BitVec 64)) (glob2_p_off! (_ BitVec 64)) (glob2_pathbuf_off! (_ BitVec 64)) (glob2_pathlim_off! (_ BitVec 64))) 
       (=> (and (inv MAXPATHLEN pathbuf_off bound_off glob2_p_off glob2_pathbuf_off glob2_pathlim_off) ( and ( bvsle glob2_p_off glob2_pathlim_off ) ( = glob2_p_off ( bvadd glob2_p_off (_ bv1 64) ) ) ( = MAXPATHLEN! MAXPATHLEN ) ( = pathbuf_off! pathbuf_off ) ( = bound_off! bound_off ) ( = glob2_pathbuf_off! glob2_pathbuf_off ) ( = glob2_pathlim_off! glob2_pathlim_off ) )) (inv MAXPATHLEN! pathbuf_off! bound_off! glob2_p_off! glob2_pathbuf_off! glob2_pathlim_off!))))
(assert (forall ((MAXPATHLEN (_ BitVec 64)) (pathbuf_off (_ BitVec 64)) (bound_off (_ BitVec 64)) (glob2_p_off (_ BitVec 64)) (glob2_pathbuf_off (_ BitVec 64)) (glob2_pathlim_off (_ BitVec 64))) 
       (=> (inv MAXPATHLEN pathbuf_off bound_off glob2_p_off glob2_pathbuf_off glob2_pathlim_off) ( or ( not ( bvsle glob2_p_off glob2_pathlim_off ) ) ( and ( bvsle glob2_p_off (_ bv0 64) ) ( bvslt glob2_p_off ( bvadd MAXPATHLEN (_ bv1 64) ) ) ) ))))
(check-sat)
